solution status: optimal solution found
objective value:                     170951.191612245
d11(0,0)                                            1 	(obj:0)
d11(1,1)                                            1 	(obj:0)
d11(1,2)                                            1 	(obj:0)
d11(2,3)                                            1 	(obj:0)
d11(2,4)                                            1 	(obj:0)
d11(2,5)                                            1 	(obj:0)
d11(3,7)                                            1 	(obj:0)
d11(3,8)                                            1 	(obj:0)
d11(3,9)                                            1 	(obj:0)
d11(3,10)                                           1 	(obj:0)
d11(3,11)                                           1 	(obj:0)
d11(3,13)                                           1 	(obj:0)
d11(3,14)                                           1 	(obj:0)
d11(4,15)                                           1 	(obj:0)
d11(4,17)                                           1 	(obj:0)
d11(4,19)                                           1 	(obj:0)
d11(4,21)                                           1 	(obj:0)
d11(4,23)                                           1 	(obj:0)
d11(4,25)                                           1 	(obj:0)
d11(4,27)                                           1 	(obj:0)
d11(4,29)                                           1 	(obj:0)
d12(4,16)                                           1 	(obj:0)
d12(4,18)                                           1 	(obj:0)
d12(4,20)                                           1 	(obj:0)
d12(4,22)                                           1 	(obj:0)
d12(4,24)                                           1 	(obj:0)
d12(4,26)                                           1 	(obj:0)
d12(4,30)                                           1 	(obj:0)
d21(3,7)                                            1 	(obj:0)
d21(4,15)                                           1 	(obj:0)
d21(4,16)                                           1 	(obj:0)
d21(4,17)                                           1 	(obj:0)
d21(4,18)                                           1 	(obj:0)
d21(4,19)                                           1 	(obj:0)
d21(4,20)                                           1 	(obj:0)
d21(4,23)                                           1 	(obj:0)
d21(4,24)                                           1 	(obj:0)
STE(1,1)                              3621.0618096078 	(obj:0)
STE(0,0)                                         6300 	(obj:0)
STE(1,2)                             5279.31170849665 	(obj:0)
STE(2,3)                             1458.81191071898 	(obj:0)
STE(2,4)                              3117.0618096078 	(obj:0)
STE(2,5)                              3117.0618096078 	(obj:0)
STE(2,6)                             4775.31170849665 	(obj:0)
STE(3,7)                            -703.437988169864 	(obj:0)
STE(3,8)                             954.811910718982 	(obj:0)
STE(3,9)                             954.811910718954 	(obj:0)
STE(3,10)                             2613.0618096078 	(obj:0)
STE(3,11)                            954.811910718954 	(obj:0)
STE(3,12)                             2613.0618096078 	(obj:0)
STE(3,13)                             2613.0618096078 	(obj:0)
STE(3,14)                            4271.31170849665 	(obj:0)
STE(4,15)                           -2686.49979777764 	(obj:0)
STE(4,16)                           -1207.43798816989 	(obj:0)
STE(4,17)                            -1028.2498988888 	(obj:0)
STE(4,18)                            450.811910718958 	(obj:0)
STE(4,19)                           -1028.24989888887 	(obj:0)
STE(4,20)                            450.811910718929 	(obj:0)
STE(4,21)                                         630 	(obj:0)
STE(4,22)                            2109.06180960778 	(obj:0)
STE(4,23)                           -1028.24989888887 	(obj:0)
STE(4,24)                            450.811910718929 	(obj:0)
STE(4,25)                                         630 	(obj:0)
STE(4,26)                            2109.06180960778 	(obj:0)
STE(4,27)                                         630 	(obj:0)
STE(4,28)                             2109.0618096078 	(obj:0)
STE(4,29)                            2288.24989888885 	(obj:0)
STE(4,30)                            3767.31170849662 	(obj:0)
y1(3,11)                             1492.42490899996 	(obj:0)
y1(3,13)                             1492.42490899996 	(obj:0)
y1(4,15)                               1331.155628647 	(obj:0)
y1(4,17)                             1331.15562864701 	(obj:0)
y1(4,19)                             1331.15562864704 	(obj:0)
y1(4,21)                             1331.15562864702 	(obj:0)
y1(4,23)                             1331.15562864704 	(obj:0)
y1(4,25)                             1331.15562864702 	(obj:0)
y1(4,27)                             1331.15562864702 	(obj:0)
y1(4,29)                             1331.15562864702 	(obj:0)
AVE(1)                               3265.91696791192 	(obj:0)
WB(2)                                3332.74178563731 	(obj:0)
AVE(2)                               3332.74178563731 	(obj:0)
AVE(3)                               3444.11697932125 	(obj:0)
WB(4)                                3399.56511093778 	(obj:0)
AVE(4)                               3399.56511093778 	(obj:0)
WG(1)                                3265.91696791192 	(obj:10)
WG(3)                                3444.11697932125 	(obj:10)
BG(1)                                1404.88518652991 	(obj:10)
BG(2)                                4196.29249897959 	(obj:10)
BG(3)                                752.175519658342 	(obj:10)
BG(4)                                4031.73200882353 	(obj:10)
y1(1,1)                              1957.44437135298 	(obj:0)
y1(1,2)                              465.019462353018 	(obj:0)
y1(2,3)                              1492.42490899994 	(obj:0)
y1(2,5)                              1492.42490899996 	(obj:0)
y1(3,7)                              1492.42490899996 	(obj:0)
y1(3,9)                              1492.42490899996 	(obj:0)
